Tried aggregator 2 times.
MIP Presolve eliminated 8 rows and 8 columns.
Aggregator did 4 substitutions.
Reduced MIP has 105109 rows, 140148 columns, and 350364 nonzeros.
Reduced MIP has 35036 binaries, 0 generals, 0 SOSs, and 0 indicators.
Presolve time = 0.32 sec. (224.71 ticks)
Found incumbent of value 2778.130052 after 0.82 sec. (680.18 ticks)
Probing time = 0.13 sec. (6.64 ticks)
Tried aggregator 1 time.
Reduced MIP has 105109 rows, 140148 columns, and 350364 nonzeros.
Reduced MIP has 35036 binaries, 0 generals, 0 SOSs, and 0 indicators.
Presolve time = 0.38 sec. (189.93 ticks)
Probing time = 0.04 sec. (6.24 ticks)
MIP emphasis: balance optimality and feasibility.
MIP search method: dynamic search.
Parallel mode: deterministic, using up to 20 threads.
Root relaxation solution time = 1.47 sec. (979.31 ticks)

        Nodes                                         Cuts/
   Node  Left     Objective  IInf  Best Integer    Best Bound    ItCnt     Gap

*     0+    0                         2778.1301   1.56790e+07              --- 
*     0+    0                       106087.9816   1.56790e+07              --- 
      0     0  4876042.5405  1555   106087.9816  4876042.5405    14371     --- 
*     0+    0                      4690788.8800  4876042.5405             3.95%
      0     0  4842392.4536   708  4690788.8800    Cuts: 3264    15760    3.23%
      0     0  4838538.1351   570  4690788.8800    Cuts: 2508    16644    3.15%
      0     0  4835723.4402   646  4690788.8800    Cuts: 1879    17449    3.09%
      0     0  4825577.3390   506  4690788.8800    Cuts: 1747    18142    2.87%
*     0+    0                      4726558.8594  4825577.3390             2.09%
      0     0  4824315.0591   582  4726558.8594     Cuts: 846    18580    2.07%
      0     0  4823149.1101   514  4726558.8594     Cuts: 740    18939    2.04%
      0     0  4822075.5545   508  4726558.8594     Cuts: 354    19214    2.02%
      0     0  4821694.8177   496  4726558.8594     Cuts: 284    19401    2.01%
      0     0  4821464.9095   486  4726558.8594     Cuts: 186    19509    2.01%
      0     0  4821231.0039   456  4726558.8594  MIRcuts: 130    19617    2.00%
      0     0  4821062.1665   466  4726558.8594      Cuts: 58    19675    2.00%
      0     0  4820851.9417   452  4726558.8594   MIRcuts: 74    19727    1.99%
      0     0  4820741.6538   458  4726558.8594   MIRcuts: 28    19749    1.99%
*     0+    0                      4793540.3407  4820741.6538             0.57%
*     0+    0                      4800834.6000  4820741.6538             0.41%
      0     2  4820741.6538   458  4800834.6000  4820741.6538    19749    0.41%
Elapsed time = 15.49 sec. (11844.76 ticks, tree = 0.01 MB, solutions = 6)
      4     6  4820677.0680   454  4800834.6000  4820736.8283    19759    0.41%
      5     7  4820621.2255   454  4800834.6000  4820736.8283    19760    0.41%
      7     9  4820610.4048   454  4800834.6000  4820736.8283    19764    0.41%
      8    10  4820617.9922   452  4800834.6000  4820736.8283    19767    0.41%
      9    11  4820676.6141   454  4800834.6000  4820736.8283    19768    0.41%
     10    12  4820395.4814   458  4800834.6000  4820734.2383    19777    0.41%
     11    13  4820239.2624   455  4800834.6000  4820734.2383    19789    0.41%
     12    14  4820389.1814   456  4800834.6000  4820734.2383    19802    0.41%
     13    15  4820508.4390   456  4800834.6000  4820734.2383    19810    0.41%
     91    93  4820611.9457   457  4800834.6000  4820675.6613    19990    0.41%
Elapsed time = 17.27 sec. (12865.37 ticks, tree = 0.01 MB, solutions = 6)
*   314+  314                      4801401.0603  4820675.6613             0.40%
    314   316  4820359.2387   428  4801401.0603  4820675.6613    20585    0.40%
*   333+  333                      4802140.3039  4820675.6613             0.39%
    333   335  4820361.2942   435  4802140.3039  4820675.6613    20665    0.39%
    334   336  4820470.9408   427  4802140.3039  4820675.6613    20666    0.39%
    443   445  4820377.2462   434  4802140.3039  4820675.6613    21007    0.39%
    444   446  4820281.0094   432  4802140.3039  4820675.6613    21008    0.39%
    445   447  4820152.9284   430  4802140.3039  4820675.6613    21012    0.39%
    446   448  4820350.8603   433  4802140.3039  4820675.6613    21015    0.39%
    447   449  4820018.3242   427  4802140.3039  4820675.6613    21023    0.39%
    448   450  4820128.4486   426  4802140.3039  4820675.6613    21031    0.39%
    449   451  4820043.8730   427  4802140.3039  4820675.6613    21032    0.39%
Elapsed time = 19.44 sec. (13968.05 ticks, tree = 0.01 MB, solutions = 9)
    768   770  4820081.1948   427  4802140.3039  4820675.6613    21827    0.39%
    769   771  4819874.5044   427  4802140.3039  4820675.6613    21830    0.39%
    771   773  4819974.8975   428  4802140.3039  4820675.6613    21834    0.39%
    772   774  4820172.6764   428  4802140.3039  4820675.6613    21838    0.39%
    780   782  4819711.3150   427  4802140.3039  4820675.6613    21853    0.39%
*   785+  785                      4802162.9101  4820675.6613             0.39%
    785   787  4820097.4740   427  4802162.9101  4820675.6613    21860    0.39%
    786   788  4820034.5120   429  4802162.9101  4820675.6613    21864    0.39%
    787   789  4820130.6063   429  4802162.9101  4820675.6613    21867    0.39%
    788   790  4820137.2356   428  4802162.9101  4820675.6613    21868    0.39%
    789   791  4819934.2056   427  4802162.9101  4820675.6613    21869    0.39%
Elapsed time = 22.62 sec. (14975.80 ticks, tree = 0.01 MB, solutions = 9)
   1003  1005  4820091.0743   426  4802162.9101  4820675.6613    22406    0.39%
   1008  1010  4819913.0883   412  4802162.9101  4820675.6613    22424    0.39%
   1016  1018  4819426.7962   419  4802162.9101  4820675.6613    22454    0.39%
   1023  1025  4819809.7790   425  4802162.9101  4820675.6613    22481    0.39%
   1028  1030  4819908.9077   412  4802162.9101  4820675.6613    22498    0.39%
   1036  1038  4819145.5009   418  4802162.9101  4820675.6613    22522    0.39%
   1043  1045  4820021.3572   427  4802162.9101  4820675.6613    22545    0.39%
   1045  1047  4819727.9441   425  4802162.9101  4820675.6613    22554    0.39%
   1047  1049  4819597.8326   424  4802162.9101  4820675.6613    22563    0.39%
   1048  1050  4819627.6124   411  4802162.9101  4820675.6613    22567    0.39%
Elapsed time = 24.49 sec. (16181.84 ticks, tree = 8.21 MB, solutions = 10)
   1434  1436  4819381.6657   412  4802162.9101  4820675.6613    23722    0.39%
   1454  1456  4819377.5335   411  4802162.9101  4820675.6613    23788    0.39%
   1455  1457  4819673.5131   401  4802162.9101  4820675.6613    23789    0.39%
   1456  1458  4819541.4184   402  4802162.9101  4820675.6613    23790    0.39%
   1474  1476  4819669.6341   401  4802162.9101  4820675.6613    23849    0.39%
   1475  1477  4819537.5393   402  4802162.9101  4820675.6613    23851    0.39%
   1493  1495  4819411.3576   400  4802162.9101  4820675.6613    23912    0.39%
   1494  1496  4819279.2629   401  4802162.9101  4820675.6613    23917    0.39%
   1560  1562  4819568.9756   399  4802162.9101  4820675.6613    24177    0.39%
   1565  1567  4819298.7917   401  4802162.9101  4820675.6613    24193    0.39%
Elapsed time = 27.61 sec. (17174.62 ticks, tree = 16.19 MB, solutions = 10)
   2094  2096  4819431.2140   403  4802162.9101  4820675.6613    25677    0.39%
   2095  2097  4819299.1192   404  4802162.9101  4820675.6613    25679    0.39%
   2114  2116  4819422.2875   401  4802162.9101  4820675.6613    25721    0.39%
   2115  2117  4819290.1927   402  4802162.9101  4820675.6613    25723    0.39%
   2134  2136  4819419.8763   400  4802162.9101  4820675.6613    25779    0.39%
   2135  2137  4819287.7816   401  4802162.9101  4820675.6613    25780    0.39%
   2154  2156  4819417.4651   399  4802162.9101  4820675.6613    25827    0.39%
   2155  2157  4819285.3704   400  4802162.9101  4820675.6613    25828    0.39%
   2172  2174  4818734.1376   368  4802162.9101  4820675.6613    25884    0.39%
   2174  2176  4819414.8885   398  4802162.9101  4820675.6613    25890    0.39%
Elapsed time = 29.74 sec. (18202.42 ticks, tree = 31.34 MB, solutions = 10)
   2743  2745  4818526.0674   364  4802162.9101  4820675.6613    27137    0.39%
   2763  2765  4818520.3749   363  4802162.9101  4820675.6613    27215    0.39%
   2770  2772  4818254.6349   333  4802162.9101  4820675.6613    27239    0.39%
   2783  2785  4818514.6825   362  4802162.9101  4820675.6613    27287    0.39%
   2790  2792  4818220.5556   334  4802162.9101  4820675.6613    27306    0.39%
   2803  2805  4818503.4574   360  4802162.9101  4820675.6613    27350    0.39%
   2810  2812  4818196.7977   333  4802162.9101  4820675.6613    27387    0.39%
   2821  2823  4818775.9688   337  4802162.9101  4820675.6613    27418    0.39%
   2823  2825  4818492.2324   358  4802162.9101  4820675.6613    27421    0.39%
   2830  2832  4818193.3931   335  4802162.9101  4820675.6613    27447    0.39%
Elapsed time = 33.00 sec. (19529.39 ticks, tree = 57.13 MB, solutions = 10)
   3403  3405  4817556.8342   326  4802162.9101  4820675.6613    28904    0.39%
   3406  3408  4816929.0289   315  4802162.9101  4820675.6613    28913    0.39%
   3409  3411  4817582.6329   330  4802162.9101  4820675.6613    28923    0.39%
   3410  3412  4818485.1434   340  4802162.9101  4820675.6613    28926    0.39%
   3411  3413  4818353.0487   341  4802162.9101  4820675.6613    28929    0.39%
   3412  3414  4817029.1539   327  4802162.9101  4820675.6613    28930    0.39%
   3414  3416  4817480.1498   322  4802162.9101  4820675.6613    28938    0.39%
   3416  3418  4816988.7658   320  4802162.9101  4820675.6613    28949    0.39%
   3417  3419  4817424.1914   321  4802162.9101  4820675.6613    28953    0.39%
   3418  3420  4817364.9961   325  4802162.9101  4820675.6613    28956    0.39%
Elapsed time = 35.43 sec. (20505.88 ticks, tree = 76.39 MB, solutions = 10)
*  3526+ 3526                      4802739.0223  4820675.6613             0.37%
   3706  3708  4816198.3325   304  4802739.0223  4820675.6613    29879    0.37%
*  3707+ 3707                      4803784.3619  4820675.6613             0.35%
   3707  3709  4817054.5584   314  4803784.3619  4820675.6613    29880    0.35%
   3726  3728  4816194.9564   304  4803784.3619  4820675.6613    29922    0.35%
   3727  3729  4817052.7710   313  4803784.3619  4820675.6613    29923    0.35%
   3746  3748  4816077.4495   303  4803784.3619  4820675.6613    29967    0.35%
   3747  3749  4817049.3949   313  4803784.3619  4820675.6613    29968    0.35%
   3748  3750  4816763.2940   323  4803784.3619  4820675.6613    29970    0.35%
   3766  3768  4816016.1344   303  4803784.3619  4820675.6613    30000    0.35%
   3767  3769  4816931.8881   312  4803784.3619  4820675.6613    30002    0.35%
   3768  3770  4816702.4497   321  4803784.3619  4820675.6613    30008    0.35%
Elapsed time = 38.37 sec. (21704.49 ticks, tree = 76.39 MB, solutions = 10)
   4627  4629  4814493.3013   290  4803784.3619  4820675.6613    32246    0.35%
   4647  4649  4814526.6977   289  4803784.3619  4820675.6613    32287    0.35%
   4649  4651  4814428.1882   287  4803784.3619  4820675.6613    32291    0.35%
   4653  4655  4814296.0935   288  4803784.3619  4820675.6613    32299    0.35%
*  4660+ 4660                      4803974.8971  4820675.6613             0.35%
   4660  4662  4815451.3874   293  4803974.8971  4820675.6613    32314    0.35%
   4661  4663  4816296.3948   305  4803974.8971  4820675.6613    32316    0.35%
   4667  4669  4814504.1396   289  4803974.8971  4820675.6613    32331    0.35%
   4669  4671  4814188.9984   287  4803974.8971  4820675.6613    32337    0.35%
   4673  4675  4814056.9037   288  4803974.8971  4820675.6613    32349    0.35%
*  4860+ 4860                      4804109.1617  4820675.6613             0.34%
*  5444+ 5444                      4804454.6144  4820675.6613             0.34%
*  5796+ 3864                      4806311.0726  4808387.4129             0.04%
*  5796+ 2576                      4807031.2979  4808074.3954             0.02%
*  5796+ 1717                      4807611.4340  4807868.6219             0.01%

Implied bound cuts applied:  174
Flow cuts applied:  126
Mixed integer rounding cuts applied:  5543
Lift and project cuts applied:  36
Gomory fractional cuts applied:  292

Root node processing (before b&c):
  Real time             =   14.82 sec. (11738.89 ticks)
Parallel b&c, 20 threads:
  Real time             =   53.46 sec. (34955.95 ticks)
  Sync time (average)   =    2.70 sec.
  Wait time (average)   =    3.53 sec.
                          ------------
Total (root+branch&cut) =   68.28 sec. (46694.84 ticks)
MKLROOT=/global/software/sl-6.x86_64/modules/langs/intel/2015.6.233/mkl
SLURM_NODELIST=n0052.savio1
SLURM_CHECKPOINT_IMAGE_DIR=/var/slurm/checkpoint
MANPATH=/global/software/sl-6.x86_64/modules/langs/julia/0.5.0/share/man:/global/software/sl-6.x86_64/modules/langs/intel/2015.6.233/man/en_US:/global/software/sl-6.x86_64/modules/langs/gcc/4.8.5/share/man:/usr/share/man
SLURM_JOB_NAME=aggregator
HOSTNAME=n0052.savio1
SLURM_NTASKS_PER_NODE=1
SLURM_TOPOLOGY_ADDR=ib-savio.ib-savio-02.n0052.savio1
SLURMD_NODENAME=n0052.savio1
SLURM_PRIO_PROCESS=0
SLURM_NODE_ALIASES=(null)
TERM=xterm-256color
SHELL=/bin/bash
HISTSIZE=1000
SLURM_JOB_QOS=savio_normal
SSH_CLIENT=128.32.156.166 53087 22
SLURM_TOPOLOGY_ADDR_PATTERN=switch.switch.node
TMPDIR=/tmp
LIBRARY_PATH=/global/software/sl-6.x86_64/modules/langs/julia/0.5.0/lib/julia:/global/software/sl-6.x86_64/modules/langs/intel/2015.6.233/mkl/lib/intel64:/global/software/sl-6.x86_64/modules/langs/gcc/4.8.5/lib64:/global/software/sl-6.x86_64/modules/langs/gcc/4.8.5/lib
GCC_DIR=/global/software/sl-6.x86_64/modules/langs/gcc/4.8.5
FPATH=/global/software/sl-6.x86_64/modules/langs/intel/2015.6.233/mkl/include/fftw:/global/software/sl-6.x86_64/modules/langs/intel/2015.6.233/mkl/include
SSH_TTY=/dev/pts/23
USER=jdlara
SLURM_NNODES=1
LD_LIBRARY_PATH=/global/software/sl-6.x86_64/modules/langs/julia/0.5.0/lib/julia:/global/software/sl-6.x86_64/modules/langs/intel/2015.6.233/mkl/lib/intel64:/global/software/sl-6.x86_64/modules/langs/gcc/4.8.5/lib64:/global/software/sl-6.x86_64/modules/langs/gcc/4.8.5/lib:/global/home/users/jdlara/gurobi652/linux64/lib
LS_COLORS=rs=0:di=38;5;27:ln=38;5;51:mh=44;38;5;15:pi=40;38;5;11:so=38;5;13:do=38;5;5:bd=48;5;232;38;5;11:cd=48;5;232;38;5;3:or=48;5;232;38;5;9:mi=05;48;5;232;38;5;15:su=48;5;196;38;5;15:sg=48;5;11;38;5;16:ca=48;5;196;38;5;226:tw=48;5;10;38;5;16:ow=48;5;10;38;5;21:st=48;5;21;38;5;15:ex=38;5;34:*.tar=38;5;9:*.tgz=38;5;9:*.arj=38;5;9:*.taz=38;5;9:*.lzh=38;5;9:*.lzma=38;5;9:*.tlz=38;5;9:*.txz=38;5;9:*.zip=38;5;9:*.z=38;5;9:*.Z=38;5;9:*.dz=38;5;9:*.gz=38;5;9:*.lz=38;5;9:*.xz=38;5;9:*.bz2=38;5;9:*.tbz=38;5;9:*.tbz2=38;5;9:*.bz=38;5;9:*.tz=38;5;9:*.deb=38;5;9:*.rpm=38;5;9:*.jar=38;5;9:*.rar=38;5;9:*.ace=38;5;9:*.zoo=38;5;9:*.cpio=38;5;9:*.7z=38;5;9:*.rz=38;5;9:*.jpg=38;5;13:*.jpeg=38;5;13:*.gif=38;5;13:*.bmp=38;5;13:*.pbm=38;5;13:*.pgm=38;5;13:*.ppm=38;5;13:*.tga=38;5;13:*.xbm=38;5;13:*.xpm=38;5;13:*.tif=38;5;13:*.tiff=38;5;13:*.png=38;5;13:*.svg=38;5;13:*.svgz=38;5;13:*.mng=38;5;13:*.pcx=38;5;13:*.mov=38;5;13:*.mpg=38;5;13:*.mpeg=38;5;13:*.m2v=38;5;13:*.mkv=38;5;13:*.ogm=38;5;13:*.mp4=38;5;13:*.m4v=38;5;13:*.mp4v=38;5;13:*.vob=38;5;13:*.qt=38;5;13:*.nuv=38;5;13:*.wmv=38;5;13:*.asf=38;5;13:*.rm=38;5;13:*.rmvb=38;5;13:*.flc=38;5;13:*.avi=38;5;13:*.fli=38;5;13:*.flv=38;5;13:*.gl=38;5;13:*.dl=38;5;13:*.xcf=38;5;13:*.xwd=38;5;13:*.yuv=38;5;13:*.cgm=38;5;13:*.emf=38;5;13:*.axv=38;5;13:*.anx=38;5;13:*.ogv=38;5;13:*.ogx=38;5;13:*.aac=38;5;45:*.au=38;5;45:*.flac=38;5;45:*.mid=38;5;45:*.midi=38;5;45:*.mka=38;5;45:*.mp3=38;5;45:*.mpc=38;5;45:*.ogg=38;5;45:*.ra=38;5;45:*.wav=38;5;45:*.axa=38;5;45:*.oga=38;5;45:*.spx=38;5;45:*.xspf=38;5;45:
CPATH=/global/software/sl-6.x86_64/modules/langs/julia/0.5.0/include:/global/software/sl-6.x86_64/modules/langs/intel/2015.6.233/mkl/include/fftw:/global/software/sl-6.x86_64/modules/langs/intel/2015.6.233/mkl/include:/global/software/sl-6.x86_64/modules/langs/gcc/4.8.5/include
SLURM_JOBID=1277287
SLURM_NTASKS=1
NLSPATH=/global/software/sl-6.x86_64/modules/langs/intel/2015.6.233/mkl/lib/intel64/locale/en_US
MAIL=/var/spool/mail/jdlara
PATH=/global/software/sl-6.x86_64/modules/langs/julia/0.5.0/bin:/global/software/sl-6.x86_64/modules/langs/gcc/4.8.5/bin:/usr/local/bin:/bin:/usr/bin:/usr/local/sbin:/usr/sbin:/sbin:/global/home/groups/allhands/bin:/global/home/users/jdlara/gurobi652/linux64/bin:/global/home/users/jdlara/bin:/global/home/users/jdlara/gurobi652/linux64/bin
SLURM_TASKS_PER_NODE=20
SLURM_CPUS_PER_TASK=1
SLURM_JOB_ID=1277287
PWD=/global/home/users/jdlara/Julia_testcodes/aggregator_model/Multiple_fleet
SLURM_JOB_USER=jdlara
_LMFILES_=/global/software/sl-6.x86_64/modfiles/langs/gcc/4.8.5:/global/software/sl-6.x86_64/modfiles/gcc/4.8.5/mkl/2015.6.233:/global/software/sl-6.x86_64/modfiles/langs/julia/0.5.0
CUDA_VISIBLE_DEVICES=NoDevFiles
MODULEPATH=/global/software/sl-6.x86_64/modfiles/tools:/global/software/sl-6.x86_64/modfiles/langs:/global/software/sl-6.x86_64/modfiles/julia/0.5.0:/global/software/sl-6.x86_64/modfiles/gcc/4.8.5
LOADEDMODULES=gcc/4.8.5:mkl/2015.6.233:julia/0.5.0
SLURM_JOB_UID=42745
SLURM_NODEID=0
SLURM_SUBMIT_DIR=/global/home/users/jdlara/Julia_testcodes/aggregator_model/Multiple_fleet
SLURM_NPROCS=1
SLURM_TASK_PID=88711
LM_LICENSE_FILE=28518@lmgr0.hpcs.lbl.gov
SLURM_CPUS_ON_NODE=20
JULIA_DIR=/global/software/sl-6.x86_64/modules/langs/julia/0.5.0
ALLHANDS_BASHRC=1
HISTCONTROL=ignoredups
ENVIRONMENT=BATCH
SLURM_PROCID=0
MKL_DIR=/global/software/sl-6.x86_64/modules/langs/intel/2015.6.233/mkl
SLURM_JOB_NODELIST=n0052.savio1
SHLVL=3
HOME=/global/home/users/jdlara
SLURM_LOCALID=0
SLURM_CLUSTER_NAME=brc
SLURM_JOB_CPUS_PER_NODE=20
SLURM_SUBMIT_HOST=n0051.savio1
SLURM_GTIDS=0
SLURM_JOB_PARTITION=savio
LOGNAME=jdlara
CVS_RSH=ssh
SSH_CONNECTION=128.32.156.166 53087 10.0.0.22 22
SLURM_JOB_ACCOUNT=fc_emac
GPU_DEVICE_ORDINAL=NoDevFiles
MODULESHOME=/usr/Modules
SLURM_JOB_NUM_NODES=1
LESSOPEN=||/usr/bin/lesspipe.sh %s
INFOPATH=/global/software/sl-6.x86_64/modules/langs/gcc/4.8.5/share/info
INCLUDE=/global/software/sl-6.x86_64/modules/langs/julia/0.5.0/include:/global/software/sl-6.x86_64/modules/langs/intel/2015.6.233/mkl/include/fftw:/global/software/sl-6.x86_64/modules/langs/intel/2015.6.233/mkl/include:/global/software/sl-6.x86_64/modules/langs/gcc/4.8.5/include
G_BROKEN_FILENAMES=1
SLURM_MEM_PER_NODE=64000
BASH_FUNC_module()=() {  logger "$HOSTNAME $USER: module $*";
 eval `/usr/Modules/bin/modulecmd bash $*`
}
_=/bin/env
